% demand
num_movements = 22;
loading_factor = [2000, 1900, 850, 800, 1450, 1200, 1850, 1850, 950, 1750, 1700, 850, 1700, 850, 1050, 1750, 1600, 1400, 1500, 900, 1200, 800];
pickup_time = [0, 0, 0, 0, 0, 1, 1, 1, 2, 2, 4, 4, 4, 4, 5, 5, 5, 6, 7, 7, 7, 7];
delivery_time = [1, 2, 1, 1, 1, 2, 2, 2, 3, 6, 5, 7, 5, 5, 8, 7, 7, 8, 8, 8, 8, 8];

% transporter definition
total_capacity = 7000;
num_decks = 3;
capacity = [3000, 1000, 3000];

% ways out of decks
num_ways_out = 1;
paths_out = array3d(decks, ways_out, decks, [
% ways out of deck d1
2, 3, 0, 

% ways out of deck d2
3, 0, 0, 

% ways out of deck d3
0, 0, 0,	

]);

